10  530
1   7   17    26    38    10    25    15    48    
2   6   37    31    27    3    9    4    
3   7   21    11    42    47    14    18    5    
4   8   36    22    16    32    39    28    24    19    
5   6   2    7    23    30    35    29    
6   1   44    
7   0
8   6   6    8    13    34    43    49    
9   9   1    41    46    12    33    40    45    20    50    
10   0

